results/res_prop_muc/res_Cimatti_mathsat_cores/QF_IDL/FISCHER3-2-ninc.smt.smt2.res
unsat
( c0
  c1
  c105
  c111
  c120
  c124
  c129
  c13
  c143
  c145
  c15
  c150
  c159
  c165
  c167
  c17
  c174
  c178
  c18
  c183
  c19
  c2
  c20
  c254
  c262
  c265
  c271
  c282
  c284
  c287
  c31
  c33
  c340
  c342
  c347
  c349
  c35
  c389
  c424
  c425
  c430
  c433
  c434
  c448
  c456
  c465
  c481
  c490
  c507
  c508
  c81
  c82
  c83
  c84
  c89
  c91
  c96 )
